instances/accenture-transportation-services_20111022_1524_subgraph_train+metro+tram+bus_gr_bz2_lp_lp_paths_tw3.lp
%start is reachable
reach(X) :- X=#min{ Y: edge(Y,_); Y: edge(_,Y); Y: link(Y,_); Y: link(_,Y) }.

%goal
goal(X) :- X=#max{ Y: edge(Y,_); Y: edge(_,Y); Y: link(Y,_); Y: link(_,Y) }.

%guess select
select(X,Y) :- reach(X), edge(X,Y), not nots(X,Y).
select(X,Y) :- reach(X), edge(Y,X), not nots(X,Y).
nots(X,Y) :- reach(X), edge(Y,X), not select(X,Y).
nots(X,Y) :- reach(X), edge(X,Y), not select(X,Y).

reach(Y) :- select(X,Y).

:- reach(X), select(X,Y), select(X,Y2), Y < Y2. 
:- goal(X), select(X,_). 
:- not reach(X), goal(X).

% Graphs generated from publicly available GTFS transit feeds by Johannes K. Fichte
%
% References
% [1] https://en.wikipedia.org/wiki/General_Transit_Feed_Specification or
% [2] https://developers.google.com/transit/gtfs/
% [3] https://github.com/daajoe/transit_graphs/blob/master/transitfeeds-tw.pdf
% [4] https://github.com/daajoe/gtfs2graphs
% [5] https://github.com/daajoe/transit_graphs/converters/pace2lp.py
%
% GTFS feeds extracted using gtfs2graphs [4]
% PACE format to lparse converter [5]
% Author: hecher (2021-03-09 19:19:07)
%
edge(1,3).
edge(1,4).
edge(2,7).
edge(3,5).
edge(4,8).
edge(5,6).
edge(7,8).
