without_loop_formulas/accenture-transportation-services_20111022_1524_subgraph_train+metro+tram+bus_gr_bz2_lp_lp_paths_tw3.lp.cnf
p cnf 74 160
c 10 select(1,3)
c 11 nots(1,3)
c 12 select(1,4)
c 13 nots(1,4)
c 14 reach(4)
c 15 reach(3)
c 16 select(3,1)
c 17 nots(3,1)
c 18 select(4,1)
c 19 nots(4,1)
c 20 select(3,5)
c 21 nots(3,5)
c 22 select(4,8)
c 23 nots(4,8)
c 24 reach(8)
c 25 reach(5)
c 26 select(5,3)
c 27 nots(5,3)
c 28 select(8,4)
c 29 nots(8,4)
c 30 select(8,7)
c 31 nots(8,7)
c 32 select(5,6)
c 33 nots(5,6)
c 34 reach(6)
c 35 reach(7)
c 36 select(7,2)
c 37 nots(7,2)
c 38 select(6,5)
c 39 nots(6,5)
c 40 select(7,8)
c 41 nots(7,8)
c 42 reach(2)
c 43 select(2,7)
c 44 nots(2,7)
c 54 edge(1,3)
c 55 edge(1,4)
c 56 edge(2,7)
c 57 edge(3,5)
c 58 edge(4,8)
c 59 edge(5,6)
c 60 edge(7,8)
c 61 reach(1)
c 62 goal(8)
10 11 0
-10 -11 0
12 13 0
-12 -13 0
63 -12 0
-63 12 0
64 -10 0
-64 10 0
16 -15 17 0
-16 15 0
-16 -17 0
18 -14 19 0
-18 14 0
-18 -19 0
20 -15 21 0
-20 15 0
-20 -21 0
22 -14 23 0
-22 14 0
-22 -23 0
65 -22 0
-65 22 0
66 -20 0
-66 20 0
26 -25 27 0
-26 25 0
-26 -27 0
28 -24 29 0
-28 24 0
-28 -29 0
30 -24 31 0
-30 24 0
-30 -31 0
32 -25 33 0
-32 25 0
-32 -33 0
34 -32 0
-34 32 0
67 -30 0
-67 30 0
68 -28 0
-68 28 0
69 -26 0
-69 26 0
36 -35 37 0
-36 35 0
-36 -37 0
38 -34 39 0
-38 34 0
-38 -39 0
40 -35 41 0
-40 35 0
-40 -41 0
70 -40 0
-70 40 0
71 -38 0
-71 38 0
42 -36 0
-42 36 0
43 -42 44 0
-43 42 0
-43 -44 0
72 -43 0
-72 43 0
17 -15 16 0
-17 15 0
-17 -16 0
19 -14 18 0
-19 14 0
-19 -18 0
37 -35 36 0
-37 35 0
-37 -36 0
27 -25 26 0
-27 25 0
-27 -26 0
29 -24 28 0
-29 24 0
-29 -28 0
39 -34 38 0
-39 34 0
-39 -38 0
31 -24 30 0
-31 24 0
-31 -30 0
11 10 0
-11 -10 0
13 12 0
-13 -12 0
44 -42 43 0
-44 42 0
-44 -43 0
21 -15 20 0
-21 15 0
-21 -20 0
23 -14 22 0
-23 14 0
-23 -22 0
33 -25 32 0
-33 25 0
-33 -32 0
41 -35 40 0
-41 35 0
-41 -40 0
73 -28 0
-73 28 0
74 -30 0
-74 30 0
24 0
-49 0
-12 -10 0
-20 -16 -15 0
-22 -18 -14 0
-30 -28 -24 0
-32 -26 -25 0
-40 -36 -35 0
54 0
55 0
56 0
57 0
58 0
59 0
60 0
61 0
62 0
-1 0
-2 0
-3 0
-4 0
-5 0
-6 0
-7 0
-8 0
-9 0
-14 63 68 0
14 -63 0
14 -68 0
-15 64 69 0
15 -64 0
15 -69 0
-24 65 70 0
24 -65 0
24 -70 0
-25 66 71 0
25 -66 0
25 -71 0
-35 67 72 0
35 -67 0
35 -72 0
-45 0
-46 0
-47 0
-48 0
-49 73 74 0
49 -73 0
49 -74 0
-50 0
-51 0
-52 0
-53 0
